TSP2

VND:
valor de k: 3
Custo minimio: 70320
Custo atual: 70320

Caminho: 0, 5, 8, 14, 20, 13, 7, 4, 10, 21, 25, 24, 19, 3, 6, 12, 2, 11, 18, 1, 9, 23, 17, 16, 27, 30, 34, 35, 36, 47, 55, 44, 42, 31, 32, 43, 51, 52, 48, 39, 37, 45, 49, 56, 57, 53, 58, 46, 40, 38, 28, 22, 29, 33, 41, 50, 59, 54, 60, 69, 74, 80, 82, 79, 78, 91, 99, 100, 108, 130, 116, 98, 77, 73, 64, 66, 90, 87, 81, 68, 72, 86, 85, 93, 101, 106, 119, 120, 121, 114, 115, 110, 102, 103, 107, 122, 129, 158, 169, 205, 215, 221, 233, 254, 268, 286, 278, 267, 245, 214, 213, 204, 232, 305, 292, 277, 266, 244, 203, 191, 154, 157, 148, 137, 136, 156, 153, 143, 163, 128, 147, 162, 179, 183, 184, 196, 202, 201, 218, 219, 220, 243, 230, 231, 265, 304, 322, 291, 285, 253, 264, 321, 284, 252, 190, 173, 178, 172, 171, 189, 195, 200, 229, 262, 276, 263, 283, 341, 349, 303, 242, 228, 212, 241, 275, 320, 314, 330, 348, 362, 361, 347, 329, 328, 302, 290, 260, 261, 240, 211, 194, 177, 170, 155, 135, 161, 126, 127, 141, 142, 109, 97, 105, 89, 84, 71, 65, 63, 70, 76, 62, 61, 88, 83, 67, 96, 95, 113, 125, 134, 146, 118, 133, 152, 193, 251, 250, 217, 192, 182, 181, 188, 187, 199, 210, 239, 227, 216, 198, 176, 165, 166, 167, 168, 150, 132, 111, 151, 124, 112, 104, 75, 94, 92, 140, 117, 123, 138, 139, 149, 160, 164, 175, 186, 209, 273, 274, 300, 339, 327, 313, 282, 301, 340, 394, 395, 417, 456, 467, 432, 416, 406, 359, 373, 393, 431, 484, 542, 541, 579, 610, 632, 702, 684, 683, 682, 659, 658, 720, 719, 836, 812, 835, 834, 787, 762, 740, 679, 678, 761, 760, 627, 539, 483, 439, 462, 577, 514, 482, 498, 481, 497, 513, 538, 564, 576, 607, 657, 786, 739, 700, 677, 699, 676, 656, 655, 626, 625, 606, 575, 537, 512, 449, 428, 388, 345, 355, 389, 403, 429, 390, 372, 346, 318, 311, 356, 357, 358, 404, 440, 464, 450, 463, 499, 578, 628, 629, 515, 516, 630, 680, 718, 701, 681, 631, 565, 540, 608, 609, 517, 500, 453, 454, 465, 466, 455, 392, 405, 430, 452, 451, 441, 391, 338, 326, 281, 225, 197, 207, 238, 237, 249, 257, 289, 312, 297, 298, 319, 299, 259, 258, 226, 208, 185, 174, 180, 131, 145, 144, 159, 206, 280, 296, 272, 248, 224, 236, 295, 271, 223, 279, 310, 317, 337, 387, 438, 415, 402, 384, 370, 385, 386, 371, 354, 344, 336, 325, 316, 309, 294, 308, 315, 335, 353, 369, 383, 382, 368, 412, 425, 436, 437, 426, 413, 414, 427, 461, 479, 496, 480, 536, 604, 605, 624, 654, 574, 535, 478, 448, 460, 511, 15, 26, 1405, 1404, 1386, 1403, 1407, 1410, 1406, 1427, 1431, 1448, 1428, 1408, 1391, 1332, 1331, 1303, 1302, 1284, 1261, 1260, 1227, 1220, 1219, 1218, 1217, 1216, 1241, 1215, 1259, 1315, 1329, 1370, 1372, 1390, 1350, 1369, 1349, 1316, 1283, 1301, 1314, 1330, 1351, 1373, 1389, 1402, 1401, 1388, 1348, 1328, 1333, 1282, 1276, 1327, 1430, 1387, 1385, 1412, 1469, 1493, 1466, 1450, 1445, 1488, 1452, 1451, 1464, 1467, 1446, 1447, 1489, 1468, 1449, 1371, 1470, 1492, 1490, 1491, 1471, 1465, 1429, 1409, 1411, 1123, 1066, 611, 544, 485, 518, 566, 543, 468, 396, 374, 360, 375, 418, 376, 433, 469, 486, 580, 545, 581, 582, 583, 584, 546, 519, 442, 487, 520, 585, 586, 612, 501, 419, 397, 407, 420, 408, 363, 350, 377, 443, 421, 409, 399, 398, 364, 365, 378, 366, 400, 379, 434, 445, 488, 470, 489, 591, 642, 643, 644, 667, 668, 645, 592, 567, 502, 471, 457, 435, 446, 458, 410, 380, 342, 333, 332, 331, 306, 307, 293, 269, 256, 255, 246, 234, 222, 235, 247, 270, 287, 288, 324, 323, 334, 343, 352, 351, 367, 381, 423, 401, 411, 424, 472, 459, 447, 473, 474, 504, 505, 506, 526, 555, 569, 648, 694, 647, 618, 617, 554, 553, 568, 552, 503, 525, 551, 550, 524, 523, 549, 522, 548, 593, 616, 594, 646, 669, 708, 730, 748, 768, 769, 731, 749, 770, 793, 794, 771, 772, 795, 816, 838, 815, 814, 837, 849, 813, 792, 767, 747, 707, 693, 692, 729, 706, 728, 727, 746, 766, 745, 744, 765, 791, 726, 705, 691, 666, 641, 547, 640, 639, 690, 704, 725, 743, 764, 790, 789, 742, 763, 724, 723, 722, 687, 664, 665, 688, 703, 689, 615, 444, 422, 521, 590, 614, 589, 588, 638, 637, 613, 587, 633, 634, 635, 636, 660, 661, 685, 662, 663, 686, 721, 741, 788, 961, 983, 990, 1000, 999, 998, 1014, 1013, 1009, 1019, 1028, 1037, 1038, 1039, 1049, 1040, 1075, 1152, 1158, 1100, 1087, 1088, 1101, 1102, 1114, 1115, 1116, 1103, 1089, 1067, 1050, 1060, 1068, 1076, 1090, 1104, 1091, 1092, 1124, 1140, 1132, 1133, 1127, 1126, 1125, 1105, 1093, 1094, 1070, 1069, 1061, 1053, 1043, 1044, 1020, 1031, 1042, 1052, 1051, 1041, 1029, 1030, 1001, 991, 992, 993, 1002, 972, 958, 947, 957, 963, 971, 962, 956, 944, 945, 946, 938, 937, 922, 914, 923, 929, 939, 930, 916, 917, 909, 908, 915, 901, 892, 900, 907, 921, 928, 927, 913, 899, 891, 890, 889, 898, 888, 883, 882, 867, 881, 880, 857, 846, 828, 845, 856, 855, 854, 866, 887, 879, 886, 906, 897, 878, 865, 877, 864, 863, 876, 862, 851, 843, 820, 842, 841, 850, 840, 839, 817, 796, 797, 773, 750, 774, 818, 819, 798, 775, 751, 752, 776, 777, 799, 821, 852, 844, 853, 826, 802, 825, 801, 824, 823, 822, 800, 778, 779, 780, 754, 753, 732, 709, 710, 733, 734, 711, 670, 649, 695, 671, 650, 559, 558, 570, 596, 595, 556, 557, 527, 528, 507, 475, 508, 490, 476, 491, 529, 560, 561, 600, 599, 598, 597, 651, 697, 696, 713, 712, 736, 737, 757, 756, 755, 735, 781, 803, 827, 804, 805, 806, 807, 808, 829, 782, 758, 809, 738, 714, 759, 830, 868, 869, 884, 858, 831, 783, 784, 716, 715, 674, 621, 602, 573, 532, 531, 572, 601, 620, 673, 672, 652, 619, 571, 562, 492, 530, 493, 509, 494, 477, 495, 510, 533, 534, 563, 603, 622, 653, 623, 675, 698, 717, 810, 859, 870, 860, 871, 847, 832, 833, 785, 811, 848, 861, 872, 885, 873, 874, 875, 895, 896, 905, 904, 903, 902, 911, 894, 893, 910, 918, 933, 986, 985, 974, 964, 965, 952, 951, 950, 932, 931, 940, 948, 949, 959, 973, 984, 994, 995, 1003, 1010, 1015, 1016, 1021, 1032, 1033, 1045, 1046, 1055, 1056, 1064, 1080, 1096, 1118, 1081, 1109, 1119, 1136, 1148, 1144, 1142, 1130, 1073, 1072, 1063, 1054, 1062, 1071, 1077, 1078, 1079, 1095, 1108, 1107, 1106, 1117, 1128, 1134, 1135, 1129, 1141, 1159, 1160, 1153, 1145, 1154, 1161, 1167, 1166, 1173, 1179, 1192, 1206, 1205, 1178, 1172, 1185, 1191, 1197, 1204, 1228, 1244, 1243, 1264, 1278, 1305, 1306, 1286, 1279, 1265, 1266, 1267, 1245, 1229, 1246, 1247, 1230, 1231, 1221, 1207, 1222, 1208, 1200, 1199, 1194, 1181, 1155, 1149, 1146, 1163, 1168, 1174, 1186, 1198, 1193, 1180, 1162, 1137, 1138, 1131, 1113, 1099, 1084, 1098, 1112, 1120, 1111, 1083, 1097, 1110, 1082, 1074, 1059, 1035, 1036, 1025, 1011, 1005, 1017, 1034, 1058, 1057, 1022, 1023, 1024, 1004, 966, 942, 941, 924, 934, 925, 926, 919, 912, 920, 936, 954, 943, 935, 953, 975, 976, 967, 987, 988, 977, 978, 968, 969, 979, 980, 970, 955, 960, 981, 982, 989, 1008, 1007, 1012, 1006, 997, 996, 1018, 1026, 1027, 1048, 1047, 1065, 1085, 1086, 1122, 1121, 1139, 1143, 1147, 1150, 1151, 1157, 1156, 1169, 1170, 1175, 1176, 1177, 1182, 1187, 1188, 1183, 1164, 1165, 1171, 1189, 1184, 1195, 1190, 1196, 1201, 1209, 1225, 1251, 1235, 1271, 1234, 1224, 1223, 1233, 1280, 1270, 1269, 1250, 1249, 1232, 1248, 1268, 1290, 1289, 1288, 1321, 1341, 1322, 1323, 1291, 1292, 1293, 1294, 1295, 1343, 1361, 1379, 1342, 1360, 1359, 1421, 1441, 1440, 1439, 1459, 1477, 1438, 1458, 1457, 1437, 1418, 1419, 1420, 1394, 1395, 1396, 1377, 1378, 1358, 1357, 1356, 1340, 1320, 1307, 1287, 1319, 1318, 1339, 1376, 1375, 1355, 1338, 1354, 1337, 1285, 1263, 1242, 1262, 1277, 1304, 1317, 1336, 1353, 1352, 1335, 1334, 1374, 1415, 1414, 1433, 1432, 1413, 1453, 1472, 1494, 1473, 1474, 1475, 1454, 1434, 1455, 1435, 1392, 1393, 1416, 1417, 1436, 1456, 1495, 1476, 1496, 1497, 1498, 1478, 1479, 1480, 1481, 1482, 1483, 1422, 1397, 1398, 1380, 1362, 1344, 1325, 1324, 1296, 1297, 1298, 1272, 1252, 1236, 1210, 1211, 1212, 1226, 1237, 1253, 1254, 1238, 1239, 1273, 1299, 1309, 1308, 1326, 1345, 1363, 1381, 1364, 1346, 1382, 1383, 1365, 1399, 1425, 1424, 1423, 1442, 1460, 1461, 1484, 1485, 1499, 1462, 1443, 1463, 1486, 1444, 1347, 1310, 1240, 1202, 1213, 1203, 1214, 1258, 1275, 1257, 1256, 1255, 1274, 1281, 1311, 1367, 1366, 1384, 1400, 1426, 1487, 1368, 1312, 1313, 1300, 0

VND FINAL:
Custo minimio total: 70320
Caminho: 0, 5, 8, 14, 20, 13, 7, 4, 10, 21, 25, 24, 19, 3, 6, 12, 2, 11, 18, 1, 9, 23, 17, 16, 27, 30, 34, 35, 36, 47, 55, 44, 42, 31, 32, 43, 51, 52, 48, 39, 37, 45, 49, 56, 57, 53, 58, 46, 40, 38, 28, 22, 29, 33, 41, 50, 59, 54, 60, 69, 74, 80, 82, 79, 78, 91, 99, 100, 108, 130, 116, 98, 77, 73, 64, 66, 90, 87, 81, 68, 72, 86, 85, 93, 101, 106, 119, 120, 121, 114, 115, 110, 102, 103, 107, 122, 129, 158, 169, 205, 215, 221, 233, 254, 268, 286, 278, 267, 245, 214, 213, 204, 232, 305, 292, 277, 266, 244, 203, 191, 154, 157, 148, 137, 136, 156, 153, 143, 163, 128, 147, 162, 179, 183, 184, 196, 202, 201, 218, 219, 220, 243, 230, 231, 265, 304, 322, 291, 285, 253, 264, 321, 284, 252, 190, 173, 178, 172, 171, 189, 195, 200, 229, 262, 276, 263, 283, 341, 349, 303, 242, 228, 212, 241, 275, 320, 314, 330, 348, 362, 361, 347, 329, 328, 302, 290, 260, 261, 240, 211, 194, 177, 170, 155, 135, 161, 126, 127, 141, 142, 109, 97, 105, 89, 84, 71, 65, 63, 70, 76, 62, 61, 88, 83, 67, 96, 95, 113, 125, 134, 146, 118, 133, 152, 193, 251, 250, 217, 192, 182, 181, 188, 187, 199, 210, 239, 227, 216, 198, 176, 165, 166, 167, 168, 150, 132, 111, 151, 124, 112, 104, 75, 94, 92, 140, 117, 123, 138, 139, 149, 160, 164, 175, 186, 209, 273, 274, 300, 339, 327, 313, 282, 301, 340, 394, 395, 417, 456, 467, 432, 416, 406, 359, 373, 393, 431, 484, 542, 541, 579, 610, 632, 702, 684, 683, 682, 659, 658, 720, 719, 836, 812, 835, 834, 787, 762, 740, 679, 678, 761, 760, 627, 539, 483, 439, 462, 577, 514, 482, 498, 481, 497, 513, 538, 564, 576, 607, 657, 786, 739, 700, 677, 699, 676, 656, 655, 626, 625, 606, 575, 537, 512, 449, 428, 388, 345, 355, 389, 403, 429, 390, 372, 346, 318, 311, 356, 357, 358, 404, 440, 464, 450, 463, 499, 578, 628, 629, 515, 516, 630, 680, 718, 701, 681, 631, 565, 540, 608, 609, 517, 500, 453, 454, 465, 466, 455, 392, 405, 430, 452, 451, 441, 391, 338, 326, 281, 225, 197, 207, 238, 237, 249, 257, 289, 312, 297, 298, 319, 299, 259, 258, 226, 208, 185, 174, 180, 131, 145, 144, 159, 206, 280, 296, 272, 248, 224, 236, 295, 271, 223, 279, 310, 317, 337, 387, 438, 415, 402, 384, 370, 385, 386, 371, 354, 344, 336, 325, 316, 309, 294, 308, 315, 335, 353, 369, 383, 382, 368, 412, 425, 436, 437, 426, 413, 414, 427, 461, 479, 496, 480, 536, 604, 605, 624, 654, 574, 535, 478, 448, 460, 511, 15, 26, 1405, 1404, 1386, 1403, 1407, 1410, 1406, 1427, 1431, 1448, 1428, 1408, 1391, 1332, 1331, 1303, 1302, 1284, 1261, 1260, 1227, 1220, 1219, 1218, 1217, 1216, 1241, 1215, 1259, 1315, 1329, 1370, 1372, 1390, 1350, 1369, 1349, 1316, 1283, 1301, 1314, 1330, 1351, 1373, 1389, 1402, 1401, 1388, 1348, 1328, 1333, 1282, 1276, 1327, 1430, 1387, 1385, 1412, 1469, 1493, 1466, 1450, 1445, 1488, 1452, 1451, 1464, 1467, 1446, 1447, 1489, 1468, 1449, 1371, 1470, 1492, 1490, 1491, 1471, 1465, 1429, 1409, 1411, 1123, 1066, 611, 544, 485, 518, 566, 543, 468, 396, 374, 360, 375, 418, 376, 433, 469, 486, 580, 545, 581, 582, 583, 584, 546, 519, 442, 487, 520, 585, 586, 612, 501, 419, 397, 407, 420, 408, 363, 350, 377, 443, 421, 409, 399, 398, 364, 365, 378, 366, 400, 379, 434, 445, 488, 470, 489, 591, 642, 643, 644, 667, 668, 645, 592, 567, 502, 471, 457, 435, 446, 458, 410, 380, 342, 333, 332, 331, 306, 307, 293, 269, 256, 255, 246, 234, 222, 235, 247, 270, 287, 288, 324, 323, 334, 343, 352, 351, 367, 381, 423, 401, 411, 424, 472, 459, 447, 473, 474, 504, 505, 506, 526, 555, 569, 648, 694, 647, 618, 617, 554, 553, 568, 552, 503, 525, 551, 550, 524, 523, 549, 522, 548, 593, 616, 594, 646, 669, 708, 730, 748, 768, 769, 731, 749, 770, 793, 794, 771, 772, 795, 816, 838, 815, 814, 837, 849, 813, 792, 767, 747, 707, 693, 692, 729, 706, 728, 727, 746, 766, 745, 744, 765, 791, 726, 705, 691, 666, 641, 547, 640, 639, 690, 704, 725, 743, 764, 790, 789, 742, 763, 724, 723, 722, 687, 664, 665, 688, 703, 689, 615, 444, 422, 521, 590, 614, 589, 588, 638, 637, 613, 587, 633, 634, 635, 636, 660, 661, 685, 662, 663, 686, 721, 741, 788, 961, 983, 990, 1000, 999, 998, 1014, 1013, 1009, 1019, 1028, 1037, 1038, 1039, 1049, 1040, 1075, 1152, 1158, 1100, 1087, 1088, 1101, 1102, 1114, 1115, 1116, 1103, 1089, 1067, 1050, 1060, 1068, 1076, 1090, 1104, 1091, 1092, 1124, 1140, 1132, 1133, 1127, 1126, 1125, 1105, 1093, 1094, 1070, 1069, 1061, 1053, 1043, 1044, 1020, 1031, 1042, 1052, 1051, 1041, 1029, 1030, 1001, 991, 992, 993, 1002, 972, 958, 947, 957, 963, 971, 962, 956, 944, 945, 946, 938, 937, 922, 914, 923, 929, 939, 930, 916, 917, 909, 908, 915, 901, 892, 900, 907, 921, 928, 927, 913, 899, 891, 890, 889, 898, 888, 883, 882, 867, 881, 880, 857, 846, 828, 845, 856, 855, 854, 866, 887, 879, 886, 906, 897, 878, 865, 877, 864, 863, 876, 862, 851, 843, 820, 842, 841, 850, 840, 839, 817, 796, 797, 773, 750, 774, 818, 819, 798, 775, 751, 752, 776, 777, 799, 821, 852, 844, 853, 826, 802, 825, 801, 824, 823, 822, 800, 778, 779, 780, 754, 753, 732, 709, 710, 733, 734, 711, 670, 649, 695, 671, 650, 559, 558, 570, 596, 595, 556, 557, 527, 528, 507, 475, 508, 490, 476, 491, 529, 560, 561, 600, 599, 598, 597, 651, 697, 696, 713, 712, 736, 737, 757, 756, 755, 735, 781, 803, 827, 804, 805, 806, 807, 808, 829, 782, 758, 809, 738, 714, 759, 830, 868, 869, 884, 858, 831, 783, 784, 716, 715, 674, 621, 602, 573, 532, 531, 572, 601, 620, 673, 672, 652, 619, 571, 562, 492, 530, 493, 509, 494, 477, 495, 510, 533, 534, 563, 603, 622, 653, 623, 675, 698, 717, 810, 859, 870, 860, 871, 847, 832, 833, 785, 811, 848, 861, 872, 885, 873, 874, 875, 895, 896, 905, 904, 903, 902, 911, 894, 893, 910, 918, 933, 986, 985, 974, 964, 965, 952, 951, 950, 932, 931, 940, 948, 949, 959, 973, 984, 994, 995, 1003, 1010, 1015, 1016, 1021, 1032, 1033, 1045, 1046, 1055, 1056, 1064, 1080, 1096, 1118, 1081, 1109, 1119, 1136, 1148, 1144, 1142, 1130, 1073, 1072, 1063, 1054, 1062, 1071, 1077, 1078, 1079, 1095, 1108, 1107, 1106, 1117, 1128, 1134, 1135, 1129, 1141, 1159, 1160, 1153, 1145, 1154, 1161, 1167, 1166, 1173, 1179, 1192, 1206, 1205, 1178, 1172, 1185, 1191, 1197, 1204, 1228, 1244, 1243, 1264, 1278, 1305, 1306, 1286, 1279, 1265, 1266, 1267, 1245, 1229, 1246, 1247, 1230, 1231, 1221, 1207, 1222, 1208, 1200, 1199, 1194, 1181, 1155, 1149, 1146, 1163, 1168, 1174, 1186, 1198, 1193, 1180, 1162, 1137, 1138, 1131, 1113, 1099, 1084, 1098, 1112, 1120, 1111, 1083, 1097, 1110, 1082, 1074, 1059, 1035, 1036, 1025, 1011, 1005, 1017, 1034, 1058, 1057, 1022, 1023, 1024, 1004, 966, 942, 941, 924, 934, 925, 926, 919, 912, 920, 936, 954, 943, 935, 953, 975, 976, 967, 987, 988, 977, 978, 968, 969, 979, 980, 970, 955, 960, 981, 982, 989, 1008, 1007, 1012, 1006, 997, 996, 1018, 1026, 1027, 1048, 1047, 1065, 1085, 1086, 1122, 1121, 1139, 1143, 1147, 1150, 1151, 1157, 1156, 1169, 1170, 1175, 1176, 1177, 1182, 1187, 1188, 1183, 1164, 1165, 1171, 1189, 1184, 1195, 1190, 1196, 1201, 1209, 1225, 1251, 1235, 1271, 1234, 1224, 1223, 1233, 1280, 1270, 1269, 1250, 1249, 1232, 1248, 1268, 1290, 1289, 1288, 1321, 1341, 1322, 1323, 1291, 1292, 1293, 1294, 1295, 1343, 1361, 1379, 1342, 1360, 1359, 1421, 1441, 1440, 1439, 1459, 1477, 1438, 1458, 1457, 1437, 1418, 1419, 1420, 1394, 1395, 1396, 1377, 1378, 1358, 1357, 1356, 1340, 1320, 1307, 1287, 1319, 1318, 1339, 1376, 1375, 1355, 1338, 1354, 1337, 1285, 1263, 1242, 1262, 1277, 1304, 1317, 1336, 1353, 1352, 1335, 1334, 1374, 1415, 1414, 1433, 1432, 1413, 1453, 1472, 1494, 1473, 1474, 1475, 1454, 1434, 1455, 1435, 1392, 1393, 1416, 1417, 1436, 1456, 1495, 1476, 1496, 1497, 1498, 1478, 1479, 1480, 1481, 1482, 1483, 1422, 1397, 1398, 1380, 1362, 1344, 1325, 1324, 1296, 1297, 1298, 1272, 1252, 1236, 1210, 1211, 1212, 1226, 1237, 1253, 1254, 1238, 1239, 1273, 1299, 1309, 1308, 1326, 1345, 1363, 1381, 1364, 1346, 1382, 1383, 1365, 1399, 1425, 1424, 1423, 1442, 1460, 1461, 1484, 1485, 1499, 1462, 1443, 1463, 1486, 1444, 1347, 1310, 1240, 1202, 1213, 1203, 1214, 1258, 1275, 1257, 1256, 1255, 1274, 1281, 1311, 1367, 1366, 1384, 1400, 1426, 1487, 1368, 1312, 1313, 1300, 0